\Problem name: 

Minimize
OBJROW: t(0) + t(1) + t(2) + t(3)
Subject To
K(0):  10 t(1) + 11 t(2) + 12 t(3) >= 1
K(1):  10 t(1) + 20 t(2) + 11 t(3) >= 1
K(2):  11 t(1) + 10 t(2) + 12 t(3) >= 1
K(3):  20 t(1) + 10 t(2) + 11 t(3) >= 1
K(4):  19 t(1) + 20 t(2) + 10 t(3) >= 1
K(5):  20 t(1) + 19 t(2) + 10 t(3) >= 1
K(6):  t(0) + 11 t(2) + 12 t(3) >= 1
K(7):  t(0) + 20 t(2) + 11 t(3) >= 1
K(8):  2 t(0) + t(2) + 12 t(3) >= 1
K(9):  11 t(0) + t(2) + 2 t(3) >= 1
K(10):  10 t(0) + 20 t(2) + t(3) >= 1
K(11):  11 t(0) + 10 t(2) + t(3) >= 1
K(12):  20 t(0) + 30 t(1) + 19 t(2) + 31 t(3) >= 1
K(13):  20 t(0) + 39 t(1) + 19 t(2) + 30 t(3) >= 1
K(14):  21 t(0) + 20 t(1) + 19 t(2) + 31 t(3) >= 1
K(15):  30 t(0) + 20 t(1) + 19 t(2) + 21 t(3) >= 1
K(16):  29 t(0) + 39 t(1) + 19 t(2) + 20 t(3) >= 1
K(17):  30 t(0) + 29 t(1) + 19 t(2) + 20 t(3) >= 1
K(18):  19 t(0) + 29 t(1) + 30 t(2) + 10 t(3) >= 1
K(19):  19 t(0) + 30 t(1) + 29 t(2) + 10 t(3) >= 1
K(20):  20 t(0) + 19 t(1) + 30 t(2) + 10 t(3) >= 1
K(21):  21 t(0) + 19 t(1) + 20 t(2) + 10 t(3) >= 1
K(22):  20 t(0) + 30 t(1) + 19 t(2) + 10 t(3) >= 1
K(23):  21 t(0) + 20 t(1) + 19 t(2) + 10 t(3) >= 1
Bounds
End
